
  32    4
  10   10   10   10

   0   0   0   0   0   5 2 4 7 9 10 
   4   0   1   1   1   2 21 3 
   7   1   0   5   5   2 12 5 
  10   1   2   2   0   3 21 12 6 
   3   2   2   0   3   4 31 18 13 8 
  10   6   0   4   4   5 31 30 28 14 13 
   4   5   4   4   0   4 21 19 16 12 
   6   0   2   2   3   2 16 11 
   9   0   5   6   2   2 19 12 
   4   3   4   0   4   1 11 
  10   0   6   7   5   4 30 28 20 14 
   2   4   0   6   3   7 30 29 25 24 20 18 15 
   8   3   0   5   4   5 29 20 19 16 15 
   4   6   4   0   5   6 29 27 26 25 23 17 
   9   6   2   0   4   3 27 26 22 
   1   5   0   5   4   3 25 23 22 
  10   5   4   3   0   2 22 19 
   3   8   7   5   0   2 28 22 
   4   0   6   4   9   1 24 
   8   5   0   5   3   1 23 
   5   3   0   4   2   1 28 
   6   3   4   3   0   1 32
   6   2   0   4   7   1 32
   3   0   6   3   2   1 32
   2   0   3   6   6   1 32
   3   8   3   0   3   1 32
   3   2   4   0   6   1 32
  10   0   5   3   6   1 32
   7   4   7   3   0   1 32
   2   2   4   2   0   1 32
   7   4   3   0   1   1 32
   0   0   0   0   0   0 
